NAME : Random_TSP_Instance
TYPE : TSP
DIMENSION : 5
EDGE_WEIGHT_TYPE : EXPLICIT
EDGE_WEIGHT_FORMAT : FULL_MATRIX
NODE_COORD_TYPE : NO_COORDS
DISPLAY_DATA_TYPE: TWOD_DISPLAY
EDGE_WEIGHT_SECTION
1504.444754 11.458438 1504.444754 3.500281 1504.444754
11.458438 1504.444754 6.167941 7.992784 7.116152
5.889949 6.167941 1504.444754 3.109328 1.974954
3.500281 1504.444754 3.109328 1504.444754 1504.444754
1504.444754 7.116152 1.974954 1504.444754 1504.444754
EOF
